; Query 0 -- Type: InitialValues, Instructions: 13448
; This file conforms to SMTLIBv2 and was generated by KLEE
(set-logic QF_AUFBV )
; Array declarations
; Constraints
; Constraints and QueryExpr
(assert
        true
)
(check-sat)
(exit)
;   OK -- Elapsed: 4.265175e-03s
;   Solvable: true

; Query 1 -- Type: InitialValues, Instructions: 13448
; This file conforms to SMTLIBv2 and was generated by KLEE
(set-option :produce-models true)
(set-logic QF_AUFBV )
; Array declarations
(declare-fun CommBufferSize () (Array (_ BitVec 32) (_ BitVec 8) ) )
; Constraints
; Constraints and QueryExpr
(assert
        (= 
           false
           (bvult 
                  (concat 
                          (select 
                                  CommBufferSize
                                  (_ bv7 32)
                          )
                          (concat 
                                  (select 
                                          CommBufferSize
                                          (_ bv6 32)
                                  )
                                  (concat 
                                          (select 
                                                  CommBufferSize
                                                  (_ bv5 32)
                                          )
                                          (concat 
                                                  (select 
                                                          CommBufferSize
                                                          (_ bv4 32)
                                                  )
                                                  (concat 
                                                          (select 
                                                                  CommBufferSize
                                                                  (_ bv3 32)
                                                          )
                                                          (concat 
                                                                  (select 
                                                                          CommBufferSize
                                                                          (_ bv2 32)
                                                                  )
                                                                  (concat 
                                                                          (select 
                                                                                  CommBufferSize
                                                                                  (_ bv1 32)
                                                                          )
                                                                          (select 
                                                                                  CommBufferSize
                                                                                  (_ bv0 32)
                                                                          )
                                                                  )
                                                          )
                                                  )
                                          )
                                  )
                          )
                  )
                  (_ bv16 64)
           )
        )
)
(check-sat)
(get-value ( (select CommBufferSize (_ bv0 32) ) ) )
(get-value ( (select CommBufferSize (_ bv1 32) ) ) )
(get-value ( (select CommBufferSize (_ bv2 32) ) ) )
(get-value ( (select CommBufferSize (_ bv3 32) ) ) )
(get-value ( (select CommBufferSize (_ bv4 32) ) ) )
(get-value ( (select CommBufferSize (_ bv5 32) ) ) )
(get-value ( (select CommBufferSize (_ bv6 32) ) ) )
(get-value ( (select CommBufferSize (_ bv7 32) ) ) )
(exit)
;   OK -- Elapsed: 4.300033e-03s
;   Solvable: true
;     CommBufferSize = [16,0,0,0,0,0,0,0]

; Query 2 -- Type: InitialValues, Instructions: 13453
; This file conforms to SMTLIBv2 and was generated by KLEE
(set-option :produce-models true)
(set-logic QF_AUFBV )
; Array declarations
(declare-fun mSmramReadyToLock () (Array (_ BitVec 32) (_ BitVec 8) ) )
; Constraints
; Constraints and QueryExpr
(assert
        (= 
           false
           (= 
              (_ bv0 8)
              (select 
                      mSmramReadyToLock
                      (_ bv0 32)
              )
           )
        )
)
(check-sat)
(get-value ( (select mSmramReadyToLock (_ bv0 32) ) ) )
(exit)
;   OK -- Elapsed: 3.989875e-03s
;   Solvable: true
;     mSmramReadyToLock = [255]

; Query 3 -- Type: InitialValues, Instructions: 13507
; This file conforms to SMTLIBv2 and was generated by KLEE
(set-option :produce-models true)
(set-logic QF_AUFBV )
; Array declarations
(declare-fun SMRAM_BASE () (Array (_ BitVec 32) (_ BitVec 8) ) )
(declare-fun SMRAM_SIZE () (Array (_ BitVec 32) (_ BitVec 8) ) )
; Constraints
; Constraints and QueryExpr
(assert
        (bvult 
               (_ bv94080872277400 64)
               ((_ zero_extend 32) 
                                   (bvadd 
                                          (concat 
                                                  (select 
                                                          SMRAM_BASE
                                                          (_ bv3 32)
                                                  )
                                                  (concat 
                                                          (select 
                                                                  SMRAM_BASE
                                                                  (_ bv2 32)
                                                          )
                                                          (concat 
                                                                  (select 
                                                                          SMRAM_BASE
                                                                          (_ bv1 32)
                                                                  )
                                                                  (select 
                                                                          SMRAM_BASE
                                                                          (_ bv0 32)
                                                                  )
                                                          )
                                                  )
                                          )
                                          (concat 
                                                  (select 
                                                          SMRAM_SIZE
                                                          (_ bv3 32)
                                                  )
                                                  (concat 
                                                          (select 
                                                                  SMRAM_SIZE
                                                                  (_ bv2 32)
                                                          )
                                                          (concat 
                                                                  (select 
                                                                          SMRAM_SIZE
                                                                          (_ bv1 32)
                                                                  )
                                                                  (select 
                                                                          SMRAM_SIZE
                                                                          (_ bv0 32)
                                                                  )
                                                          )
                                                  )
                                          )
                                   )
               )
        )
)
(check-sat)
(get-value ( (select SMRAM_BASE (_ bv0 32) ) ) )
(get-value ( (select SMRAM_BASE (_ bv1 32) ) ) )
(get-value ( (select SMRAM_BASE (_ bv2 32) ) ) )
(get-value ( (select SMRAM_BASE (_ bv3 32) ) ) )
(get-value ( (select SMRAM_SIZE (_ bv0 32) ) ) )
(get-value ( (select SMRAM_SIZE (_ bv1 32) ) ) )
(get-value ( (select SMRAM_SIZE (_ bv2 32) ) ) )
(get-value ( (select SMRAM_SIZE (_ bv3 32) ) ) )
(exit)
;   OK -- Elapsed: 1.020661e-02s
;   Solvable: false

; Query 4 -- Type: InitialValues, Instructions: 13521
; This file conforms to SMTLIBv2 and was generated by KLEE
(set-option :produce-models true)
(set-logic QF_AUFBV )
; Array declarations
(declare-fun CommBufferSize () (Array (_ BitVec 32) (_ BitVec 8) ) )
; Constraints
; Constraints and QueryExpr
(assert
        (let
            (
             (?B1
                 (concat 
                         (select 
                                 CommBufferSize
                                 (_ bv7 32)
                         )
                         (concat 
                                 (select 
                                         CommBufferSize
                                         (_ bv6 32)
                                 )
                                 (concat 
                                         (select 
                                                 CommBufferSize
                                                 (_ bv5 32)
                                         )
                                         (concat 
                                                 (select 
                                                         CommBufferSize
                                                         (_ bv4 32)
                                                 )
                                                 (concat 
                                                         (select 
                                                                 CommBufferSize
                                                                 (_ bv3 32)
                                                         )
                                                         (concat 
                                                                 (select 
                                                                         CommBufferSize
                                                                         (_ bv2 32)
                                                                 )
                                                                 (concat 
                                                                         (select 
                                                                                 CommBufferSize
                                                                                 (_ bv1 32)
                                                                         )
                                                                         (select 
                                                                                 CommBufferSize
                                                                                 (_ bv0 32)
                                                                         )
                                                                 )
                                                         )
                                                 )
                                         )
                                 )
                         )
                 )
             )
            )
            (and 
                 (= 
                    false
                    (bvult 
                           (_ bv0 64)
                           ?B1
                    )
                 )
                 (= 
                    false
                    (bvult 
                           ?B1
                           (_ bv16 64)
                    )
                 )
            )
        )
)
(check-sat)
(get-value ( (select CommBufferSize (_ bv0 32) ) ) )
(get-value ( (select CommBufferSize (_ bv1 32) ) ) )
(get-value ( (select CommBufferSize (_ bv2 32) ) ) )
(get-value ( (select CommBufferSize (_ bv3 32) ) ) )
(get-value ( (select CommBufferSize (_ bv4 32) ) ) )
(get-value ( (select CommBufferSize (_ bv5 32) ) ) )
(get-value ( (select CommBufferSize (_ bv6 32) ) ) )
(get-value ( (select CommBufferSize (_ bv7 32) ) ) )
(exit)
;   OK -- Elapsed: 4.350366e-03s
;   Solvable: false

